NL = 1;
CARGO = anon_enum(8);
size = array1d(CARGO,[2, 1, 2, 3, 1, 3, 2, 1]);
makespan = 100;
SHIP = {SH_1,SH_2,SH_3,SH_4};
ship = array1d(CARGO,[SH_1,SH_2,SH_3,SH_4,SH_1,SH_3,SH_2,SH_3]);
arrival = array1d(SHIP,[0, 10, 60, 30]);
len = 3;
build_time = 2;
load_time = 1;
load_speed = 1;
